Instance: E121-07c.dat
Class:  2
120 --- number of customers (no depot)
23 --- number of vehicles
242 --- number of items
Capacity - height - width of vehicles
   200     40     20
Node - x - y - demand  Readytime Duetime
  0.00   10.00  45.00   0.00 0       690.00       
  1.00   25.00   1.00  25.00 169.00  189.00       
  2.00   25.00   3.00   7.00 438.00  449.00       
  3.00   31.00   5.00  13.00 400.00  419.00       
  4.00   32.00   5.00   6.00  89.00  105.00       
  5.00   31.00   7.00  14.00 355.00  364.00       
  6.00   32.00   9.00   5.00 167.00  173.00       
  7.00   34.00   9.00  11.00 415.00  420.00       
  8.00   46.00   9.00  19.00  98.00  112.00       
  9.00   35.00   7.00   5.00 191.00  201.00       
 10.00   34.00   6.00  15.00 511.00  529.00       
 11.00   35.00   5.00  15.00  87.00  103.00       
 12.00   47.00   6.00  17.00 156.00  168.00       
 13.00   40.00   5.00  13.00 189.00  198.00       
 14.00   39.00   3.00  12.00  54.00   99.00       
 15.00   36.00   3.00  18.00  32.00   99.00       
 16.00   73.00   6.00  13.00 226.00  236.00       
 17.00   73.00   8.00  18.00 249.00  257.00       
 18.00   24.00  36.00  12.00 206.00  223.00       
 19.00   76.00   6.00  17.00 120.00  125.00       
 20.00   76.00  10.00   4.00 421.00  436.00       
 21.00   76.00  13.00   7.00 253.00  268.00       
 22.00   78.00   3.00  12.00 542.00  559.00       
 23.00   78.00   9.00  13.00 376.00  384.00       
 24.00   79.00   3.00   8.00 290.00  300.00       
 25.00   79.00   5.00  16.00 283.00  302.00       
 26.00   79.00  11.00  15.00  21.00   99.00       
 27.00   82.00   3.00   6.00 253.00  258.00       
 28.00   82.00   7.00   5.00 186.00  198.00       
 29.00   90.00  15.00   9.00 398.00  409.00       
 30.00   84.00   3.00  11.00 546.00  566.00       
 31.00   84.00   5.00  10.00 339.00  344.00       
 32.00   84.00   9.00   3.00 377.00  382.00       
 33.00   85.00   1.00   7.00   8.00   99.00       
 34.00   87.00   5.00   2.00 129.00  137.00       
 35.00   85.00   8.00   4.00 312.00  321.00       
 36.00   87.00   7.00   4.00 483.00  492.00       
 37.00   86.00  41.00  18.00 370.00  390.00       
 38.00   86.00  44.00  14.00 102.00  116.00       
 39.00   86.00  46.00  12.00 472.00  480.00       
 40.00   85.00  55.00  17.00  73.00   99.00       
 41.00   89.00  43.00  20.00 349.00  361.00       
 42.00   89.00  46.00  14.00 437.00  452.00       
 43.00   89.00  52.00  16.00 567.00  575.00       
 44.00   92.00  42.00  10.00 213.00  230.00       
 45.00   92.00  52.00   9.00 290.00  303.00       
 46.00   94.00  42.00  11.00 476.00  487.00       
 47.00   94.00  44.00   7.00 553.00  565.00       
 48.00   94.00  48.00  13.00 355.00  369.00       
 49.00   96.00  42.00   5.00 502.00  514.00       
 50.00   99.00  46.00   4.00 207.00  218.00       
 51.00   99.00  50.00  21.00 385.00  399.00       
 52.00   83.00  80.00  13.00 283.00  288.00       
 53.00   83.00  83.00  11.00 370.00  385.00       
 54.00   85.00  81.00  12.00 317.00  322.00       
 55.00   85.00  85.00  14.00 521.00  540.00       
 56.00   85.00  89.00  10.00 190.00  202.00       
 57.00   87.00  80.00   8.00 570.00  579.00       
 58.00   87.00  86.00  16.00 346.00  360.00       
 59.00   90.00  77.00  19.00 377.00  396.00       
 60.00   90.00  88.00   5.00 189.00  196.00       
 61.00   93.00  82.00  17.00 256.00  269.00       
 62.00   93.00  84.00   7.00 274.00  292.00       
 63.00   93.00  89.00  16.00 326.00  342.00       
 64.00   94.00  86.00  14.00 103.00  121.00       
 65.00   95.00  80.00  17.00 242.00  249.00       
 66.00   99.00  89.00  13.00 174.00  181.00       
 67.00   37.00  83.00  17.00 488.00  504.00       
 68.00   50.00  80.00  13.00 513.00  524.00       
 69.00   35.00  85.00  14.00 509.00  521.00       
 70.00   35.00  87.00  16.00 347.00  353.00       
 71.00   44.00  86.00   7.00 283.00  293.00       
 72.00   46.00  89.00  13.00  31.00   99.00       
 73.00   46.00  83.00   9.00 335.00  344.00       
 74.00   46.00  87.00  11.00 302.00  318.00       
 75.00   46.00  89.00  35.00 379.00  389.00       
 76.00   48.00  83.00   5.00 131.00  140.00       
 77.00   50.00  85.00  28.00 162.00  173.00       
 78.00   50.00  88.00   7.00 412.00  425.00       
 79.00   54.00  86.00   3.00 348.00  354.00       
 80.00   54.00  90.00  10.00 512.00  531.00       
 81.00   10.00  35.00   7.00 328.00  348.00       
 82.00   10.00  40.00  12.00 554.00  569.00       
 83.00   18.00  30.00  11.00 399.00  404.00       
 84.00   17.00  35.00  10.00 301.00  306.00       
 85.00   16.00  38.00   8.00 530.00  542.00       
 86.00   14.00  40.00  11.00 480.00  496.00       
 87.00   15.00  42.00  21.00 500.00  514.00       
 88.00   11.00  42.00   4.00 570.00  580.00       
 89.00   18.00  40.00  15.00 505.00  516.00       
 90.00   21.00  39.00  16.00 556.00  571.00       
 91.00   20.00  40.00   4.00 259.00  271.00       
 92.00   18.00  41.00  16.00 205.00  225.00       
 93.00   20.00  44.00   7.00 471.00  490.00       
 94.00   22.00  44.00  10.00 149.00  162.00       
 95.00   16.00  45.00   9.00  37.00   99.00       
 96.00   20.00  45.00  11.00  31.00   99.00       
 97.00   25.00  45.00  17.00 532.00  552.00       
 98.00   30.00  55.00  12.00 466.00  475.00       
 99.00   20.00  50.00  11.00  38.00   99.00       
100.00   22.00  51.00   7.00 557.00  567.00       
101.00   18.00  49.00   9.00 229.00  236.00       
102.00   16.00  48.00  11.00 428.00  442.00       
103.00   20.00  55.00  12.00 161.00  167.00       
104.00   18.00  53.00   7.00 289.00  301.00       
105.00   14.00  50.00   8.00 560.00  573.00       
106.00   15.00  51.00   6.00 475.00  483.00       
107.00   16.00  54.00   5.00 498.00  514.00       
108.00   28.00  33.00  12.00 152.00  158.00       
109.00   33.00  38.00  13.00  17.00   99.00       
110.00   30.00  50.00   7.00 449.00  464.00       
111.00   13.00  40.00   7.00 453.00  464.00       
112.00   15.00  36.00   8.00 352.00  358.00       
113.00   18.00  31.00  11.00 356.00  362.00       
114.00   25.00  37.00  13.00 372.00  388.00       
115.00   30.00  46.00  11.00 136.00  146.00       
116.00   25.00  52.00  10.00  55.00   99.00       
117.00   16.00  33.00   7.00 564.00  577.00       
118.00   25.00  35.00   4.00 418.00  424.00       
119.00    5.00  40.00  20.00 395.00  401.00       
120.00    5.00  50.00  13.00 376.00  394.00       
Node - number of items - h - w for each item
    0   0
    1   2    6   13   13    2
    2   2    9    5   27    3
    3   2    4   15    9    7
    4   3    6   14   15    6    8    5
    5   2    8   15   10    4
    6   3    8   11   15    6   12    2
    7   2    7   11    8    5
    8   3    7   10   10    8   10    7
    9   2   32    3   17    3
   10   1   20    2
   11   3    4   16   11    7   25    4
   12   1    7    7
   13   3   30    4   15    4   30    3
   14   2    5   14    6    7
   15   2   20    3   15    2
   16   2   14    7   31    4
   17   2    5   13   20    3
   18   3   10    5   16    4   12    2
   19   2    5   12   17    3
   20   3   12    4   29    3   16    3
   21   2    5   13   11    7
   22   1    7    8
   23   2    5   13   12    7
   24   1    5   14
   25   2    8   14   12    5
   26   2    6   11   13    3
   27   1   20    2
   28   3   11    6   16    5   29    2
   29   2    5   10   31    4
   30   1   28    2
   31   2    6    9   24    2
   32   2   15    6   15    2
   33   1   14    4
   34   2   11    7    8    6
   35   2    8    8   12    5
   36   2    6   14   17    2
   37   3    5   14   27    4    9    4
   38   2    9    8   14    6
   39   2    8    7   20    3
   40   1    9    7
   41   2    4   13   17    3
   42   3    5   16   10    8   12    4
   43   2    4   10   14    5
   44   2    5   13   19    3
   45   3    5   14    7    7   16    6
   46   1    7    7
   47   3    6   10   16    7   31    3
   48   1    8    7
   49   1    6   16
   50   1   12    5
   51   1   20    3
   52   2   11    4   24    3
   53   2    5   15   28    4
   54   2   16    8   17    2
   55   3   11    8    5    7   12    2
   56   3    6    8   14    7   24    4
   57   2   11    7   29    3
   58   3    7   12   14    6   13    4
   59   2    7   14   14    6
   60   3    5   14    8    6   12    3
   61   1   10    4
   62   3   14    7   15    6   11    6
   63   2    4   13    5    9
   64   2    6   14   14    6
   65   3    7   11   11    7    9    7
   66   3    7   10    5    7    4    6
   67   2   14    8   24    3
   68   1   28    3
   69   3   11    7   16    6   22    2
   70   1    8   14
   71   2    6    6   32    2
   72   1    9    7
   73   2    8    7   22    3
   74   1   13    5
   75   2    7   16    5   13
   76   3    6   15   28    4   21    2
   77   2   15    3   13    2
   78   1   14    6
   79   1   14    4
   80   3   14    7    4    6   21    3
   81   1    5   11
   82   1   18    3
   83   2   14    3   15    2
   84   2   14    5   17    3
   85   1   16    7
   86   3    6   15    7   14    5   11
   87   1   13    6
   88   3    6   11   10    5   21    3
   89   3    6   12   13    6   28    4
   90   2    5   13    6   12
   91   1    8    6
   92   2   11    7    9    6
   93   3   15    7    6    7    6    7
   94   1    5    8
   95   2    7   14    7   13
   96   1   15    7
   97   2   17    4   17    3
   98   1   19    3
   99   1    8   11
  100   3    7    9   10    7   27    2
  101   3    8   15   16    6   16    5
  102   3    5   10   14    7   15    5
  103   1   13    3
  104   2    4    7   12    6
  105   1   28    3
  106   1    5    6
  107   1   25    3
  108   3    7   12   11    8   26    2
  109   2   24    3   16    3
  110   1   18    3
  111   3    6   11   15    8   13    4
  112   3    5   13    8   11   23    3
  113   3    7   15    8   10   12    2
  114   3   15    5   15    3   13    2
  115   3    6    8   15    5   30    3
  116   2    7    9   11    6
  117   3   15    7   27    4   30    3
  118   1    5   16
  119   3    5   11    8    8   15    6
  120   2   15    7   21    3
